#------------------------------------------------------------------------------
#$Date: 2016-02-13 21:28:24 +0200 (Sat, 13 Feb 2016) $
#$Revision: 176429 $
#$URL: svn://www.crystallography.net/cod/cif/1/53/15/1531534.cif $
#------------------------------------------------------------------------------
#
# This file is available in the Crystallography Open Database (COD),
# http://www.crystallography.net/
#
# All data on this site have been placed in the public domain by the
# contributors.
#
data_1531534
loop_
_publ_author_name
'Kagomiya, I.'
'Kohn, K.'
'Uchiyama, T.'
_publ_section_title
;
 Structure and ferroelectricity of R Mn2 O5
;
_journal_name_full               Ferroelectrics
_journal_page_first              131
_journal_page_last               143
_journal_volume                  280
_journal_year                    2002
_chemical_formula_sum            'Mn2 O5 Pr'
_chemical_name_systematic        'Pr (Mn2 O5)'
_space_group_IT_number           55
_symmetry_space_group_name_Hall  '-P 2 2ab'
_symmetry_space_group_name_H-M   'P b a m'
_cell_angle_alpha                90
_cell_angle_beta                 90
_cell_angle_gamma                90
_cell_formula_units_Z            4
_cell_length_a                   7.5516
_cell_length_b                   8.6453
_cell_length_c                   5.7078
_cell_volume                     372.639
_citation_journal_id_ASTM        FEROA8
_cod_data_source_file            Kagomiya_FEROA8_2002_1921.cif
_cod_data_source_block           Mn2O5Pr1
_cod_original_cell_volume        372.6385
_cod_original_formula_sum        'Mn2 O5 Pr1'
_cod_database_code               1531534
loop_
_symmetry_equiv_pos_as_xyz
x,y,z
-x,-y,z
x+1/2,-y+1/2,-z
-x+1/2,y+1/2,-z
-x,-y,-z
x,y,-z
-x-1/2,y-1/2,z
x-1/2,-y-1/2,z
loop_
_atom_site_label
_atom_site_type_symbol
_atom_site_fract_x
_atom_site_fract_y
_atom_site_fract_z
_atom_site_occupancy
_atom_site_U_iso_or_equiv
Mn2 Mn+3 0.4106 0.3516 0.5 1 0.0
Mn1 Mn+4 0 0.5 0.258 1 0.0
O2 O-2 0.1528 0.4516 0 1 0.0
O1 O-2 0 0 0.2752 1 0.0
O3 O-2 0.1525 0.4383 0.5 1 0.0
Pr1 Pr+3 0.1438 0.1726 0 1 0.0
O4 O-2 0.4013 0.205 0.248 1 0.0
