#------------------------------------------------------------------------------
#$Date: 2015-09-28 16:57:02 +0300 (Mon, 28 Sep 2015) $
#$Revision: 158815 $
#$URL: svn://www.crystallography.net/cod/cif/1/53/28/1532825.cif $
#------------------------------------------------------------------------------
#
# This file is available in the Crystallography Open Database (COD),
# http://www.crystallography.net/
#
# All data on this site have been placed in the public domain by the
# contributors.
#
data_1532825
loop_
_publ_author_name
'Okrusch, M.'
'Hock, R.'
'Schuessler, U.'
'Brummer, A.'
'Baier, M.'
'Theisinger, H.'
_publ_section_title
;
 Intergrown niobian rutile phases with Sc- and W-rich ferrocolumbite: an
 electron-microprobe and Rietveld study
;
_journal_name_full               'American Mineralogist'
_journal_page_first              986
_journal_page_last               995
_journal_volume                  88
_journal_year                    2003
_chemical_formula_sum            'Nb0.048 O2 Ti0.952'
_chemical_name_systematic        '(Ti0.952 Nb0.048) O2'
_space_group_IT_number           136
_symmetry_space_group_name_Hall  '-P 4n 2n'
_symmetry_space_group_name_H-M   'P 42/m n m'
_cell_angle_alpha                90
_cell_angle_beta                 90
_cell_angle_gamma                90
_cell_formula_units_Z            2
_cell_length_a                   4.622
_cell_length_b                   4.622
_cell_length_c                   2.9763
_cell_volume                     63.582
_citation_journal_id_ASTM        AMMIAY
_cod_data_source_file            Okrusch_AMMIAY_2003_47.cif
_cod_data_source_block           Nb0.048O2Ti0.952
_cod_original_cell_volume        63.58236
_cod_database_code               1532825
loop_
_symmetry_equiv_pos_as_xyz
x,y,z
-y+1/2,x+1/2,z+1/2
-x,-y,z
y+1/2,-x+1/2,z+1/2
x+1/2,-y+1/2,-z+1/2
y,x,-z
-x+1/2,y+1/2,-z+1/2
-y,-x,-z
-x,-y,-z
y-1/2,-x-1/2,-z-1/2
x,y,-z
-y-1/2,x-1/2,-z-1/2
-x-1/2,y-1/2,z-1/2
-y,-x,z
x-1/2,-y-1/2,z-1/2
y,x,z
loop_
_atom_site_label
_atom_site_type_symbol
_atom_site_fract_x
_atom_site_fract_y
_atom_site_fract_z
_atom_site_occupancy
_atom_site_U_iso_or_equiv
Ti1 Ti+4 0 0 0 0.952 0.0
Nb1 Nb+4 0 0 0 0.048 0.0
O1 O-2 0.3003 0.3003 0 1 0.0
