#------------------------------------------------------------------------------
#$Date: 2016-02-13 21:28:24 +0200 (Sat, 13 Feb 2016) $
#$Revision: 176429 $
#$URL: svn://www.crystallography.net/cod/cif/1/53/33/1533390.cif $
#------------------------------------------------------------------------------
#
# This file is available in the Crystallography Open Database (COD),
# http://www.crystallography.net/
#
# All data on this site have been placed in the public domain by the
# contributors.
#
data_1533390
loop_
_publ_author_name
'Akhtar, M.J.'
'Waseem, S.'
_publ_section_title
;
 Computational study of scheelite (Zr Si O4) by employing static
 simulation techniques
;
_journal_name_full               'Solid State Sciences'
_journal_page_first              541
_journal_page_last               548
_journal_volume                  5
_journal_year                    2003
_chemical_formula_sum            'O4 Si Zr'
_chemical_name_systematic        'Zr (Si O4)'
_space_group_IT_number           88
_symmetry_space_group_name_Hall  'I 4bw -1bw'
_symmetry_space_group_name_H-M   'I 41/a :1'
_cell_angle_alpha                90
_cell_angle_beta                 90
_cell_angle_gamma                90
_cell_formula_units_Z            4
_cell_length_a                   4.6958
_cell_length_b                   4.6958
_cell_length_c                   10.5749
_cell_volume                     233.182
_citation_journal_id_ASTM        SSSCFJ
_cod_data_source_file            Akhtar_SSSCFJ_2003_1018.cif
_cod_data_source_block           O4Si1Zr1
_cod_original_cell_volume        233.1822
_cod_original_sg_symbol_Hall     '-I 4ad (x,y+1/4,z+1/8)'
_cod_original_formula_sum        'O4 Si1 Zr1'
_cod_database_code               1533390
loop_
_symmetry_equiv_pos_as_xyz
x,y,z
-y,x+1/2,z+1/4
-x+1/2,-y+1/2,z+1/2
y+1/2,-x,z+3/4
-x,-y+1/2,-z+1/4
y,-x,-z
x-1/2,y,-z-1/4
-y-1/2,x+1/2,-z-1/2
x+1/2,y+1/2,z+1/2
-y+1/2,x+1,z+3/4
-x+1,-y+1,z+1
y+1,-x+1/2,z+5/4
-x+1/2,-y+1,-z+3/4
y+1/2,-x+1/2,-z+1/2
x,y+1/2,-z+1/4
-y,x+1,-z
loop_
_atom_site_label
_atom_site_type_symbol
_atom_site_fract_x
_atom_site_fract_y
_atom_site_fract_z
_atom_site_occupancy
_atom_site_U_iso_or_equiv
Zr1 Zr+4 0 0 0.5 1 0.0
Si1 Si+4 0 0 0 1 0.0
O1 O-2 0.25 0.15 0.09 1 0.0
