#------------------------------------------------------------------------------
#$Date: 2015-10-05 16:40:51 +0300 (Mon, 05 Oct 2015) $
#$Revision: 160389 $
#$URL: svn://www.crystallography.net/cod/cif/1/53/40/1534069.cif $
#------------------------------------------------------------------------------
#
# This file is available in the Crystallography Open Database (COD),
# http://www.crystallography.net/
#
# All data on this site have been placed in the public domain by the
# contributors.
#
data_1534069
loop_
_publ_author_name
'Ludwig, M.'
_publ_section_title
;
 Anwendung quantenmechanischer ab initio Rechnungen zum Studium
 ausgewaehlter Kristallstrukturprobleme
;
_journal_name_full               'Dissertation Thesis Darmstadt'
_journal_page_first              1
_journal_page_last               1
_journal_volume                  1998
_journal_year                    1998
_chemical_formula_sum            'Ca7 In1.024 N4'
_chemical_name_systematic        '(Ca7 N4) In1.024'
_space_group_IT_number           55
_symmetry_space_group_name_Hall  '-P 2 2ab'
_symmetry_space_group_name_H-M   'P b a m'
_cell_angle_alpha                90
_cell_angle_beta                 90
_cell_angle_gamma                90
_cell_formula_units_Z            2
_cell_length_a                   11.704
_cell_length_b                   12.141
_cell_length_c                   3.637
_cell_volume                     516.811
_citation_journal_id_ASTM        DIDARL
_cod_data_source_file            Ludwig_DIDARL_1998_705.cif
_cod_data_source_block           Ca7In1.024N4
_cod_original_cell_volume        516.8114
_cod_database_code               1534069
loop_
_symmetry_equiv_pos_as_xyz
x,y,z
-x,-y,z
x+1/2,-y+1/2,-z
-x+1/2,y+1/2,-z
-x,-y,-z
x,y,-z
-x-1/2,y-1/2,z
x-1/2,-y-1/2,z
loop_
_atom_site_label
_atom_site_type_symbol
_atom_site_fract_x
_atom_site_fract_y
_atom_site_fract_z
_atom_site_occupancy
_atom_site_U_iso_or_equiv
Ca3 Ca 0.42788 0.23464 0 1 0.0
In1 In 0 0 0.3744 0.502 0.0
Ca2 Ca 0.26556 0.02117 0 1 0.0
Ca4 Ca 0 0.5 0.5 1 0.0
In2 In 0 0 0 0.02 0.0
N1 N 0.3333 0.1409 0.5 1 0.0
N2 N 0.1022 0.3687 0 1 0.0
Ca1 Ca 0.17138 0.25983 0.5 1 0.0
